* ENCODING=ISO-8859-1
NAME          UFlpPre
ROWS
 N  obj     
 G  c1      
 G  c2      
 G  c3      
 G  c4      
 G  c5      
 G  c6      
 G  c7      
 G  c8      
 G  c9      
 G  c10     
 L  c11     
 L  c12     
 L  c13     
 L  c14     
 L  c15     
 L  c16     
 L  c17     
 L  c18     
 L  c19     
 G  c20     
 G  c21     
 L  c22     
 L  c23     
 G  c24     
 L  c25     
 L  c26     
 L  c27     
 L  c28     
 L  c29     
 L  c30     
 L  c31     
 L  c32     
 L  c33     
 L  c34     
 L  c35     
 L  c36     
 L  c37     
 L  c38     
 L  c39     
 L  c40     
 L  c41     
 L  c42     
 L  c43     
 L  c44     
 L  c45     
 L  c46     
 L  c47     
 L  c48     
 L  c49     
 L  c50     
 L  c51     
 L  c52     
 L  c53     
 L  c54     
 L  c55     
 L  c56     
 L  c57     
 L  c58     
 L  c59     
 L  c60     
 L  c61     
 G  c62     
 G  c63     
 G  c64     
 G  c65     
 G  c66     
 G  c67     
 G  c68     
 G  c69     
 G  c70     
COLUMNS
    MARK0000  'MARKER'                 'INTORG'
    x1        obj                           100
    x1        c11                           -30
    x1        c53                        -20052
    x1        c62                        -20052
    x2        obj                           200
    x2        c12                           -30
    x2        c54                        -20052
    x2        c63                        -20052
    x3        obj                           150
    x3        c13                           -30
    x3        c55                        -20052
    x3        c64                        -20052
    x4        obj                           100
    x4        c14                           -30
    x4        c56                        -20052
    x4        c65                        -20052
    x5        obj                            42
    x5        c15                           -30
    x5        c57                        -20052
    x5        c66                        -20052
    x6        obj                            65
    x6        c16                           -30
    x6        c58                        -20052
    x6        c67                        -20052
    x7        obj                            60
    x7        c17                           -30
    x7        c59                        -20052
    x7        c68                        -20052
    x8        c18                           -20
    x8        c20                             1
    x8        c22                             1
    x8        c60                        -20052
    x8        c69                        -20052
    x9        c19                           -20
    x9        c21                             1
    x9        c23                             1
    x9        c61                        -20052
    x9        c70                        -20052
    MARK0001  'MARKER'                 'INTEND'
    x10       obj                             4
    x10       c1                              1
    x10       c2                             -1
    x10       c11                             1
    x11       obj                             4
    x11       c6                              1
    x11       c7                             -1
    x11       c11                             1
    x12       obj                            12
    x12       c1                              1
    x12       c4                             -1
    x12       c12                             1
    x13       obj                            12
    x13       c6                              1
    x13       c9                             -1
    x13       c12                             1
    x14       obj                           4.8
    x14       c1                              1
    x14       c5                             -1
    x14       c13                             1
    x15       obj                           4.8
    x15       c6                              1
    x15       c10                            -1
    x15       c13                             1
    x16       obj                           6.4
    x16       c1                             -1
    x16       c2                              1
    x16       c14                             1
    x17       obj                           6.4
    x17       c6                             -1
    x17       c7                              1
    x17       c14                             1
    x18       obj                             4
    x18       c2                              1
    x18       c4                             -1
    x18       c15                             1
    x19       obj                             4
    x19       c7                              1
    x19       c9                             -1
    x19       c15                             1
    x20       obj                           3.2
    x20       c3                              1
    x20       c4                             -1
    x20       c16                             1
    x21       obj                           3.2
    x21       c8                              1
    x21       c9                             -1
    x21       c16                             1
    x22       obj                           7.2
    x22       c3                             -1
    x22       c5                              1
    x22       c17                             1
    x23       obj                           7.2
    x23       c8                             -1
    x23       c10                             1
    x23       c17                             1
    x24       obj                          8000
    x24       c1                              1
    x24       c4                             -1
    x24       c18                             1
    x25       obj                          8000
    x25       c6                              1
    x25       c9                             -1
    x25       c18                             1
    x26       obj                          8000
    x26       c2                              1
    x26       c5                             -1
    x26       c19                             1
    x27       obj                          8000
    x27       c7                              1
    x27       c10                            -1
    x27       c19                             1
    x28       obj                           0.2
    x28       c24                             1
    MARK0002  'MARKER'                 'INTORG'
    x29       c25                        -20052
    x29       c26                        -20052
    x29       c43                             1
    x30       c27                        -20052
    x30       c28                        -20052
    x30       c43                             1
    x31       c29                        -20052
    x31       c30                        -20052
    x31       c43                             1
    x32       c31                        -20052
    x32       c32                        -20052
    x32       c43                             1
    x33       c33                        -20052
    x33       c34                        -20052
    x33       c43                             1
    x34       c35                        -20052
    x34       c36                        -20052
    x34       c43                             1
    x35       c37                        -20052
    x35       c38                        -20052
    x35       c43                             1
    x36       c39                        -20052
    x36       c40                        -20052
    x36       c43                          1000
    x37       c41                        -20052
    x37       c42                        -20052
    x37       c43                          1000
    MARK0003  'MARKER'                 'INTEND'
    x38       c25                            -1
    x38       c26                            -1
    x38       c44                            -1
    x38       c62                            -1
    x39       c27                            -1
    x39       c28                            -1
    x39       c45                            -1
    x39       c63                            -1
    x40       c29                            -1
    x40       c30                            -1
    x40       c46                            -1
    x40       c64                            -1
    x41       c31                            -1
    x41       c32                            -1
    x41       c47                            -1
    x41       c65                            -1
    x42       c33                            -1
    x42       c34                            -1
    x42       c48                            -1
    x42       c66                            -1
    x43       c35                            -1
    x43       c36                            -1
    x43       c49                            -1
    x43       c67                            -1
    x44       c37                            -1
    x44       c38                            -1
    x44       c50                            -1
    x44       c68                            -1
    x45       c39                            -1
    x45       c40                            -1
    x45       c51                            -1
    x45       c69                            -1
    x46       c41                            -1
    x46       c42                            -1
    x46       c52                            -1
    x46       c70                            -1
    x47       c24                           -10
    x47       c25                             1
    x47       c27                             1
    x47       c29                             1
    x47       c31                            -1
    x47       c39                             1
    x48       c26                             1
    x48       c28                             1
    x48       c30                             1
    x48       c32                            -1
    x48       c40                             1
    x49       c25                            -1
    x49       c31                             1
    x49       c33                             1
    x49       c41                             1
    x50       c24                           -10
    x50       c26                            -1
    x50       c32                             1
    x50       c34                             1
    x50       c42                             1
    x51       c35                             1
    x51       c37                            -1
    x52       c36                             1
    x52       c38                            -1
    x53       c24                            10
    x53       c27                            -1
    x53       c33                            -1
    x53       c35                            -1
    x53       c39                            -1
    x54       c28                            -1
    x54       c34                            -1
    x54       c36                            -1
    x54       c40                            -1
    x55       c29                            -1
    x55       c37                             1
    x55       c41                            -1
    x56       c24                            10
    x56       c30                            -1
    x56       c38                             1
    x56       c42                            -1
    x57       c24                            30
    x57       c44                             1
    x57       c53                             1
    x57       c62                             1
    x58       c24                            30
    x58       c45                             1
    x58       c54                             1
    x58       c63                             1
    x59       c24                            30
    x59       c46                             1
    x59       c55                             1
    x59       c64                             1
    x60       c24                            30
    x60       c47                             1
    x60       c56                             1
    x60       c65                             1
    x61       c24                            30
    x61       c48                             1
    x61       c57                             1
    x61       c66                             1
    x62       c24                            30
    x62       c49                             1
    x62       c58                             1
    x62       c67                             1
    x63       c24                            30
    x63       c50                             1
    x63       c59                             1
    x63       c68                             1
    x64       c24                            20
    x64       c51                             1
    x64       c60                             1
    x64       c69                             1
    x65       c24                            20
    x65       c52                             1
    x65       c61                             1
    x65       c70                             1
RHS
    rhs       c1                             10
    rhs       c4                            -10
    rhs       c7                             10
    rhs       c10                           -10
    rhs       c20                             1
    rhs       c21                             1
    rhs       c22                             1
    rhs       c23                             1
    rhs       c25                             5
    rhs       c26                             5
    rhs       c27                            15
    rhs       c28                            15
    rhs       c29                             6
    rhs       c30                             6
    rhs       c31                             8
    rhs       c32                             8
    rhs       c33                             5
    rhs       c34                             5
    rhs       c35                             4
    rhs       c36                             4
    rhs       c37                             9
    rhs       c38                             9
    rhs       c39                         10000
    rhs       c40                         10000
    rhs       c41                         10000
    rhs       c42                         10000
    rhs       c43                             1
    rhs       c62                        -20052
    rhs       c63                        -20052
    rhs       c64                        -20052
    rhs       c65                        -20052
    rhs       c66                        -20052
    rhs       c67                        -20052
    rhs       c68                        -20052
    rhs       c69                        -20052
    rhs       c70                        -20052
BOUNDS
 UP bnd       x1                              1
 UP bnd       x2                              1
 UP bnd       x3                              1
 UP bnd       x4                              1
 UP bnd       x5                              1
 UP bnd       x6                              1
 UP bnd       x7                              1
 UP bnd       x8                              1
 UP bnd       x9                              1
 UP bnd       x29                             1
 UP bnd       x30                             1
 UP bnd       x31                             1
 UP bnd       x32                             1
 UP bnd       x33                             1
 UP bnd       x34                             1
 UP bnd       x35                             1
 UP bnd       x36                             1
 UP bnd       x37                             1
 FR bnd       x47     
 FR bnd       x48     
 FR bnd       x49     
 FR bnd       x50     
 FR bnd       x51     
 FR bnd       x52     
 FR bnd       x53     
 FR bnd       x54     
 FR bnd       x55     
 FR bnd       x56     
ENDATA
